
  22   10
  10   10   10   10   10   10   10   10   10   10

   0   0   0   0   0   0   0   0   0   0   0   2 2 4 
   6   0   0   0  10   0   0   0   0   0   0   1 3 
   7   0   0   0   0   0  10   0   0   0   0   2 8 5 
   9   0   0  10   0   0   0   0   0   0   0   2 8 5 
   3   0   0   0   0   0   0   0  10   0   0   2 11 6 
   4   0   0   0  10   0   0   0   0   0   0   1 7 
   4   0   0   0   0   0   0   0   0  10   0   1 9 
   5   0   0   0   0   0   0   0  10   0   0   1 9 
   9   0  10   0   0   0   0   0   0   0   0   1 10 
   5   0   0   0   0   0   0   0   0  10   0   2 13 12 
   2   0   0   0  10   0   0   0   0   0   0   1 12 
   3  10   0   0   0   0   0   0   0   0   0   2 21 14 
   5  10   0   0   0   0   0   0   0   0   0   2 21 15 
   8   0   0   0   0   0   0   0   0   0  10   1 15 
   3   0  10   0   0   0   0   0   0   0   0   1 16 
   3   0   0   0   0   0   0   0  10   0   0   1 17 
   9  10   0   0   0   0   0   0   0   0   0   2 20 18 
   1   0   0   0  10   0   0   0   0   0   0   1 19 
   4   0   0   0   0   0   0   0   0   0  10   1 22
   5   0   0   0   0   0   0   0   0   0  10   1 22
   9   0   0   0   0   0   0   0  10   0   0   1 22
   0   0   0   0   0   0   0   0   0   0   0   0 
